50
    1   345   286
    2   396   386
    3   457   480
    4   353   337
    5   308   354
    6   549   536
    7   124   139
    8   175   154
    9    33    75
   10    97    96
   11   181   154
   12   433   417
   13   545   538
   14   309   258
   15    34    51
   16   298   355
   17   119   139
   18   508   454
   19   312   319
   20   224   204
   21   524   539
   22   572   534
   23   449   498
   24   249   213
   25   304   283
   26   486   510
   27   316   272
   28   239   246
   29   208   268
   30   494   485
   31   541   592
   32   459   434
   33   350   410
   34    69    11
   35   482   498
   36    54    15
   37   288   250
   38   165   131
   39   504   562
   40   340   293
   41   263   229
   42    85   144
   43   185   164
   44   117   132
   45   546   501
   46   386   393
   47   418   432
   48   120    80
   49   137   173
   50   248   246
601
